54 100 80 96 89 71 52 97 79 39 82
78 77 30 92 10 38 45 6 63 99 48
23 90 74 70 56 88 69 81
26 9 44 25 67 60 16 65 13 91 64
95 15 7 58 24 1 35 2 29 36
66 33 76 21 43 49 72 18 40 84 68 94 27 55
93 37 57 73 22 14 19 42 31 47
50 12 86 59 17 28 46 51 87 5 34 20 4
32 75 62 83 53 3 98 41 85 61 8
11
